minimalmodel/appliresult/sat2020result/sat2020result/clingo/result/preimage_80r_495m_160h_seed_379.cnf.txt
clingo version 5.4.0
Reading from stdin
Solving...
SATISFIABLE

Models       : 1+
Calls        : 1
Time         : 7178.200s (Solving: 7166.00s 1st Model: 7166.00s Unsat: 0.00s)
CPU Time     : 7153.625s
